c nIsolatedPIs 0
c maxPI 32
p cnf 223 574
c gate 33 -15 -31 0
-15 -33 0
-31 -33 0
15 31 33 0
c gate 34 15 31 0
15 -34 0
31 -34 0
-15 -31 34 0
c gate 35 -33 -34 0
-33 -35 0
-34 -35 0
33 34 35 0
c gate 36 14 30 0
14 -36 0
30 -36 0
-14 -30 36 0
c gate 37 -14 -30 0
-14 -37 0
-30 -37 0
14 30 37 0
c gate 38 -36 -37 0
-36 -38 0
-37 -38 0
36 37 38 0
c gate 39 12 28 0
12 -39 0
28 -39 0
-12 -28 39 0
c gate 40 13 29 0
13 -40 0
29 -40 0
-13 -29 40 0
c gate 41 -39 -40 0
-39 -41 0
-40 -41 0
39 40 41 0
c gate 42 38 -41 0
38 -42 0
-41 -42 0
-38 41 42 0
c gate 43 -36 -42 0
-36 -43 0
-42 -43 0
36 42 43 0
c gate 44 35 -43 0
35 -44 0
-43 -44 0
-35 43 44 0
c gate 45 -35 43 0
-35 -45 0
43 -45 0
35 -43 45 0
c gate 46 -44 -45 0
-44 -46 0
-45 -46 0
44 45 46 0
c gate 47 -13 -29 0
-13 -47 0
-29 -47 0
13 29 47 0
c gate 48 -12 -28 0
-12 -48 0
-28 -48 0
12 28 48 0
c gate 49 -39 -48 0
-39 -49 0
-48 -49 0
39 48 49 0
c gate 50 -11 -27 0
-11 -50 0
-27 -50 0
11 27 50 0
c gate 51 -10 -26 0
-10 -51 0
-26 -51 0
10 26 51 0
c gate 52 9 25 0
9 -52 0
25 -52 0
-9 -25 52 0
c gate 53 -2 -18 0
-2 -53 0
-18 -53 0
2 18 53 0
c gate 54 1 17 0
1 -54 0
17 -54 0
-1 -17 54 0
c gate 55 -53 54 0
-53 -55 0
54 -55 0
53 -54 55 0
c gate 56 3 19 0
3 -56 0
19 -56 0
-3 -19 56 0
c gate 57 2 18 0
2 -57 0
18 -57 0
-2 -18 57 0
c gate 58 -56 -57 0
-56 -58 0
-57 -58 0
56 57 58 0
c gate 59 -55 58 0
-55 -59 0
58 -59 0
55 -58 59 0
c gate 60 -4 -20 0
-4 -60 0
-20 -60 0
4 20 60 0
c gate 61 -3 -19 0
-3 -61 0
-19 -61 0
3 19 61 0
c gate 62 -60 -61 0
-60 -62 0
-61 -62 0
60 61 62 0
c gate 63 -59 62 0
-59 -63 0
62 -63 0
59 -62 63 0
c gate 64 4 20 0
4 -64 0
20 -64 0
-4 -20 64 0
c gate 65 5 21 0
5 -65 0
21 -65 0
-5 -21 65 0
c gate 66 -64 -65 0
-64 -66 0
-65 -66 0
64 65 66 0
c gate 67 -63 66 0
-63 -67 0
66 -67 0
63 -66 67 0
c gate 68 -5 -21 0
-5 -68 0
-21 -68 0
5 21 68 0
c gate 69 -6 -22 0
-6 -69 0
-22 -69 0
6 22 69 0
c gate 70 -68 -69 0
-68 -70 0
-69 -70 0
68 69 70 0
c gate 71 -67 70 0
-67 -71 0
70 -71 0
67 -70 71 0
c gate 72 6 22 0
6 -72 0
22 -72 0
-6 -22 72 0
c gate 73 7 -23 0
7 -73 0
-23 -73 0
-7 23 73 0
c gate 74 -7 23 0
-7 -74 0
23 -74 0
7 -23 74 0
c gate 75 -73 -74 0
-73 -75 0
-74 -75 0
73 74 75 0
c gate 76 -72 -75 0
-72 -76 0
-75 -76 0
72 75 76 0
c gate 77 -71 76 0
-71 -77 0
76 -77 0
71 -76 77 0
c gate 78 8 24 0
8 -78 0
24 -78 0
-8 -24 78 0
c gate 79 -8 -24 0
-8 -79 0
-24 -79 0
8 24 79 0
c gate 80 -78 -79 0
-78 -80 0
-79 -80 0
78 79 80 0
c gate 81 77 80 0
77 -81 0
80 -81 0
-77 -80 81 0
c gate 82 -7 -23 0
-7 -82 0
-23 -82 0
7 23 82 0
c gate 83 -78 82 0
-78 -83 0
82 -83 0
78 -82 83 0
c gate 84 -9 -25 0
-9 -84 0
-25 -84 0
9 25 84 0
c gate 85 -79 -84 0
-79 -85 0
-84 -85 0
79 84 85 0
c gate 86 -83 85 0
-83 -86 0
85 -86 0
83 -85 86 0
c gate 87 -81 86 0
-81 -87 0
86 -87 0
81 -86 87 0
c gate 88 -52 -87 0
-52 -88 0
-87 -88 0
52 87 88 0
c gate 89 -51 -88 0
-51 -89 0
-88 -89 0
51 88 89 0
c gate 90 11 27 0
11 -90 0
27 -90 0
-11 -27 90 0
c gate 91 10 26 0
10 -91 0
26 -91 0
-10 -26 91 0
c gate 92 -90 -91 0
-90 -92 0
-91 -92 0
90 91 92 0
c gate 93 -89 92 0
-89 -93 0
92 -93 0
89 -92 93 0
c gate 94 -50 -93 0
-50 -94 0
-93 -94 0
50 93 94 0
c gate 95 49 94 0
49 -95 0
94 -95 0
-49 -94 95 0
c gate 96 41 -95 0
41 -96 0
-95 -96 0
-41 95 96 0
c gate 97 -47 -96 0
-47 -97 0
-96 -97 0
47 96 97 0
c gate 98 38 -97 0
38 -98 0
-97 -98 0
-38 97 98 0
c gate 99 -37 -98 0
-37 -99 0
-98 -99 0
37 98 99 0
c gate 100 35 -99 0
35 -100 0
-99 -100 0
-35 99 100 0
c gate 101 -35 99 0
-35 -101 0
99 -101 0
35 -99 101 0
c gate 102 -100 -101 0
-100 -102 0
-101 -102 0
100 101 102 0
c gate 103 -46 -102 0
-46 -103 0
-102 -103 0
46 102 103 0
c gate 104 46 102 0
46 -104 0
102 -104 0
-46 -102 104 0
c gate 105 -103 -104 0
-103 -105 0
-104 -105 0
103 104 105 0
c gate 106 -50 -90 0
-50 -106 0
-90 -106 0
50 90 106 0
c gate 107 10 -26 0
10 -107 0
-26 -107 0
-10 26 107 0
c gate 108 8 -24 0
8 -108 0
-24 -108 0
-8 24 108 0
c gate 109 -52 -84 0
-52 -109 0
-84 -109 0
52 84 109 0
c gate 110 -108 -109 0
-108 -110 0
-109 -110 0
108 109 110 0
c gate 111 -10 26 0
-10 -111 0
26 -111 0
10 -26 111 0
c gate 112 -9 25 0
-9 -112 0
25 -112 0
9 -25 112 0
c gate 113 -111 -112 0
-111 -113 0
-112 -113 0
111 112 113 0
c gate 114 -110 113 0
-110 -114 0
113 -114 0
110 -113 114 0
c gate 115 -107 -114 0
-107 -115 0
-114 -115 0
107 114 115 0
c gate 116 -2 18 0
-2 -116 0
18 -116 0
2 -18 116 0
c gate 117 -1 17 0
-1 -117 0
17 -117 0
1 -17 117 0
c gate 118 -116 -117 0
-116 -118 0
-117 -118 0
116 117 118 0
c gate 119 2 -18 0
2 -119 0
-18 -119 0
-2 18 119 0
c gate 120 3 -19 0
3 -120 0
-19 -120 0
-3 19 120 0
c gate 121 -119 -120 0
-119 -121 0
-120 -121 0
119 120 121 0
c gate 122 -118 121 0
-118 -122 0
121 -122 0
118 -121 122 0
c gate 123 -4 20 0
-4 -123 0
20 -123 0
4 -20 123 0
c gate 124 -3 19 0
-3 -124 0
19 -124 0
3 -19 124 0
c gate 125 -123 -124 0
-123 -125 0
-124 -125 0
123 124 125 0
c gate 126 -122 125 0
-122 -126 0
125 -126 0
122 -125 126 0
c gate 127 5 -21 0
5 -127 0
-21 -127 0
-5 21 127 0
c gate 128 4 -20 0
4 -128 0
-20 -128 0
-4 20 128 0
c gate 129 -127 -128 0
-127 -129 0
-128 -129 0
127 128 129 0
c gate 130 -126 129 0
-126 -130 0
129 -130 0
126 -129 130 0
c gate 131 -69 -72 0
-69 -131 0
-72 -131 0
69 72 131 0
c gate 132 -5 21 0
-5 -132 0
21 -132 0
5 -21 132 0
c gate 133 -131 -132 0
-131 -133 0
-132 -133 0
131 132 133 0
c gate 134 -130 133 0
-130 -134 0
133 -134 0
130 -133 134 0
c gate 135 -74 134 0
-74 -135 0
134 -135 0
74 -134 135 0
c gate 136 6 -22 0
6 -136 0
-22 -136 0
-6 22 136 0
c gate 137 -74 136 0
-74 -137 0
136 -137 0
74 -136 137 0
c gate 138 -73 -137 0
-73 -138 0
-137 -138 0
73 137 138 0
c gate 139 -135 138 0
-135 -139 0
138 -139 0
135 -138 139 0
c gate 140 -80 -139 0
-80 -140 0
-139 -140 0
80 139 140 0
c gate 141 113 140 0
113 -141 0
140 -141 0
-113 -140 141 0
c gate 142 115 -141 0
115 -142 0
-141 -142 0
-115 141 142 0
c gate 143 -106 142 0
-106 -143 0
142 -143 0
106 -142 143 0
c gate 144 -33 -100 0
-33 -144 0
-100 -144 0
33 100 144 0
c gate 145 -34 -44 0
-34 -145 0
-44 -145 0
34 44 145 0
c gate 146 16 -32 0
16 -146 0
-32 -146 0
-16 32 146 0
c gate 147 -16 32 0
-16 -147 0
32 -147 0
16 -32 147 0
c gate 148 -146 -147 0
-146 -148 0
-147 -148 0
146 147 148 0
c gate 149 145 -148 0
145 -149 0
-148 -149 0
-145 148 149 0
c gate 150 144 149 0
144 -150 0
149 -150 0
-144 -149 150 0
c gate 151 -134 -150 0
-134 -151 0
-150 -151 0
134 150 151 0
c gate 152 -38 41 0
-38 -152 0
41 -152 0
38 -41 152 0
c gate 153 -42 -152 0
-42 -153 0
-152 -153 0
42 152 153 0
c gate 154 -38 97 0
-38 -154 0
97 -154 0
38 -97 154 0
c gate 155 -98 -154 0
-98 -155 0
-154 -155 0
98 154 155 0
c gate 156 153 155 0
153 -156 0
155 -156 0
-153 -155 156 0
c gate 157 -153 -155 0
-153 -157 0
-155 -157 0
153 155 157 0
c gate 158 -156 -157 0
-156 -158 0
-157 -158 0
156 157 158 0
c gate 159 -52 -91 0
-52 -159 0
-91 -159 0
52 91 159 0
c gate 160 -86 159 0
-86 -160 0
159 -160 0
86 -159 160 0
c gate 161 -50 -51 0
-50 -161 0
-51 -161 0
50 51 161 0
c gate 162 -160 161 0
-160 -162 0
161 -162 0
160 -161 162 0
c gate 163 -90 -162 0
-90 -163 0
-162 -163 0
90 162 163 0
c gate 164 -49 94 0
-49 -164 0
94 -164 0
49 -94 164 0
c gate 165 163 -164 0
163 -165 0
-164 -165 0
-163 164 165 0
c gate 166 49 -94 0
49 -166 0
-94 -166 0
-49 94 166 0
c gate 167 -163 -166 0
-163 -167 0
-166 -167 0
163 166 167 0
c gate 168 -165 -167 0
-165 -168 0
-167 -168 0
165 167 168 0
c gate 169 158 168 0
158 -169 0
168 -169 0
-158 -168 169 0
c gate 170 -145 148 0
-145 -170 0
148 -170 0
145 -148 170 0
c gate 171 -149 -170 0
-149 -171 0
-170 -171 0
149 170 171 0
c gate 172 144 148 0
144 -172 0
148 -172 0
-144 -148 172 0
c gate 173 -144 -148 0
-144 -173 0
-148 -173 0
144 148 173 0
c gate 174 -172 -173 0
-172 -174 0
-173 -174 0
172 173 174 0
c gate 175 -171 174 0
-171 -175 0
174 -175 0
171 -174 175 0
c gate 176 171 -174 0
171 -176 0
-174 -176 0
-171 174 176 0
c gate 177 -40 -47 0
-40 -177 0
-47 -177 0
40 47 177 0
c gate 178 95 -177 0
95 -178 0
-177 -178 0
-95 177 178 0
c gate 179 -157 -178 0
-157 -179 0
-178 -179 0
157 178 179 0
c gate 180 -104 -179 0
-104 -180 0
-179 -180 0
104 179 180 0
c gate 181 -103 -180 0
-103 -181 0
-180 -181 0
103 180 181 0
c gate 182 -176 181 0
-176 -182 0
181 -182 0
176 -181 182 0
c gate 183 -175 -182 0
-175 -183 0
-182 -183 0
175 182 183 0
c gate 184 -169 -183 0
-169 -184 0
-183 -184 0
169 183 184 0
c gate 185 -81 -95 0
-81 -185 0
-95 -185 0
81 95 185 0
c gate 186 158 185 0
158 -186 0
185 -186 0
-158 -185 186 0
c gate 187 -184 -186 0
-184 -187 0
-186 -187 0
184 186 187 0
c gate 188 151 187 0
151 -188 0
187 -188 0
-151 -187 188 0
c gate 189 -75 134 0
-75 -189 0
134 -189 0
75 -134 189 0
c gate 190 -134 -148 0
-134 -190 0
-148 -190 0
134 148 190 0
c gate 191 176 190 0
176 -191 0
190 -191 0
-176 -190 191 0
c gate 192 -189 -191 0
-189 -192 0
-191 -192 0
189 191 192 0
c gate 193 -188 192 0
-188 -193 0
192 -193 0
188 -192 193 0
c gate 194 80 138 0
80 -194 0
138 -194 0
-80 -138 194 0
c gate 195 -139 194 0
-139 -195 0
194 -195 0
139 -194 195 0
c gate 196 193 -195 0
193 -196 0
-195 -196 0
-193 195 196 0
c gate 197 -140 -196 0
-140 -197 0
-196 -197 0
140 196 197 0
c gate 198 -107 -111 0
-107 -198 0
-111 -198 0
107 111 198 0
c gate 199 -109 198 0
-109 -199 0
198 -199 0
109 -198 199 0
c gate 200 140 -199 0
140 -200 0
-199 -200 0
-140 199 200 0
c gate 201 -197 -200 0
-197 -201 0
-200 -201 0
197 200 201 0
c gate 202 106 -142 0
106 -202 0
-142 -202 0
-106 142 202 0
c gate 203 -143 -202 0
-143 -203 0
-202 -203 0
143 202 203 0
c gate 204 115 -203 0
115 -204 0
-203 -204 0
-115 203 204 0
c gate 205 201 -204 0
201 -205 0
-204 -205 0
-201 204 205 0
c gate 206 -143 -205 0
-143 -206 0
-205 -206 0
143 205 206 0
c gate 207 -35 -38 0
-35 -207 0
-38 -207 0
35 38 207 0
c gate 208 -49 148 0
-49 -208 0
148 -208 0
49 -148 208 0
c gate 209 -177 208 0
-177 -209 0
208 -209 0
177 -208 209 0
c gate 210 207 209 0
207 -210 0
209 -210 0
-207 -209 210 0
c gate 211 143 210 0
143 -211 0
210 -211 0
-143 -210 211 0
c gate 212 -206 -211 0
-206 -212 0
-211 -212 0
206 211 212 0
c gate 213 -168 179 0
-168 -213 0
179 -213 0
168 -179 213 0
c gate 214 212 -213 0
212 -214 0
-213 -214 0
-212 213 214 0
c gate 215 77 -168 0
77 -215 0
-168 -215 0
-77 168 215 0
c gate 216 -95 -215 0
-95 -216 0
-215 -216 0
95 215 216 0
c gate 217 158 216 0
158 -217 0
216 -217 0
-158 -216 217 0
c gate 218 179 -217 0
179 -218 0
-217 -218 0
-179 217 218 0
c gate 219 -212 218 0
-212 -219 0
218 -219 0
212 -218 219 0
c gate 220 -214 -219 0
-214 -220 0
-219 -220 0
214 219 220 0
c gate 221 105 -220 0
105 -221 0
-220 -221 0
-105 220 221 0
c gate 222 -105 220 0
-105 -222 0
220 -222 0
105 -220 222 0
c gate 223 -221 -222 0
-221 -223 0
-222 -223 0
221 222 223 0
c PO
-223 0
